[VALIDATOR STDOUT]
Checking plan: /home/jfan5/Safety-gen/runs/benchmark/optic/grippers_20260201_172244/grippers/optic_results/grippers-n3-r25-o23-s23001.plan
Plan executed successfully - checking goal
Plan valid
Final value: 88 

Successful plans:
Value: 88
 /home/jfan5/Safety-gen/runs/benchmark/optic/grippers_20260201_172244/grippers/optic_results/grippers-n3-r25-o23-s23001.plan 88
